data;


param d:= 100;
param r:=5;
param p:=0.900000;
param M:=1000;
param U:=
         1         1        9.879126e-01
         2         1       -1.481090e+00
         3         1        9.982856e-01
         4         1       -1.159834e+00
         5         1       -1.702693e+00
         6         1       -2.379079e-01
         7         1       -5.302360e-01
         8         1        4.192825e-01
         9         1        2.813056e+00
        10         1        5.237098e-01
        11         1        1.387039e+00
        12         1       -2.602924e+00
        13         1       -2.971378e-01
        14         1        1.878920e+00
        15         1       -4.329047e-02
        16         1        8.319481e-01
        17         1       -1.899927e-01
        18         1        1.519209e-01
        19         1       -4.432522e-01
        20         1       -1.068747e-01
        21         1        1.326303e+00
        22         1       -7.391148e-01
        23         1       -1.664225e-01
        24         1        1.570549e-02
        25         1       -1.476908e+00
        26         1       -5.168523e-02
        27         1       -8.237807e-01
        28         1        2.258150e+00
        29         1       -6.931495e-02
        30         1       -6.532340e-01
        31         1        5.607301e-01
        32         1        4.932619e-01
        33         1        2.010625e+00
        34         1       -7.678568e-02
        35         1        1.060204e+00
        36         1        1.302282e-01
        37         1        2.471567e-01
        38         1        1.106463e-01
        39         1        3.772024e-01
        40         1        2.127469e-01
        41         1       -5.507044e-02
        42         1        9.010041e-01
        43         1       -5.079154e-01
        44         1        1.190561e+00
        45         1        4.557089e-01
        46         1        1.029897e+00
        47         1        3.589127e-01
        48         1        7.229695e-01
        49         1        6.742766e-01
        50         1       -3.882526e-01
        51         1       -2.162122e-01
        52         1       -4.081080e-02
        53         1       -8.147359e-01
        54         1        4.406716e-01
        55         1       -4.168534e-01
        56         1       -1.170176e-01
        57         1        6.499738e-01
        58         1       -3.338475e-01
        59         1        1.021385e+00
        60         1        6.407519e-01
        61         1        8.072942e-01
        62         1        5.986487e-01
        63         1       -1.344364e-01
        64         1        4.750104e-01
        65         1       -9.011305e-01
        66         1       -4.300465e-01
        67         1       -2.001611e-02
        68         1        5.842255e-03
        69         1       -4.350135e-01
        70         1       -6.730590e-01
        71         1        1.218224e+00
        72         1       -6.953146e-01
        73         1        1.548095e-01
        74         1        1.260444e-01
        75         1        2.662303e-01
        76         1        8.990776e-01
        77         1       -1.681320e+00
        78         1       -1.195653e+00
        79         1       -6.108997e-01
        80         1       -2.816738e+00
        81         1       -1.605493e+00
        82         1       -1.082909e+00
        83         1        1.202349e+00
        84         1       -4.166345e-01
        85         1        2.440460e-01
        86         1       -3.684594e-01
        87         1       -1.428394e-01
        88         1        5.427694e-01
        89         1        1.639268e-02
        90         1       -1.838437e+00
        91         1       -7.878008e-01
        92         1        1.174623e+00
        93         1        5.409000e-02
        94         1       -3.092077e-02
        95         1       -6.528067e-01
        96         1       -4.680127e-01
        97         1        5.131252e-01
        98         1        8.041040e-01
        99         1        6.153881e-02
       100         1       -3.801934e+00
         1         2       -9.416250e-01
         2         2        4.555705e-01
         3         2        1.326339e+00
         4         2        1.263530e+00
         5         2        1.655579e-01
         6         2        1.781232e+00
         7         2        1.653976e+00
         8         2       -2.102753e+00
         9         2       -1.640864e+00
        10         2        7.637407e-01
        11         2       -1.222610e+00
        12         2        6.367133e-01
        13         2       -1.273566e+00
        14         2        4.737539e-01
        15         2       -8.533220e-01
        16         2       -1.088694e+00
        17         2       -1.131903e+00
        18         2        1.017654e+00
        19         2       -7.907707e-02
        20         2       -5.606189e-02
        21         2       -7.649731e-02
        22         2       -2.137322e+00
        23         2       -1.060027e+00
        24         2       -7.685387e-01
        25         2        2.455209e-01
        26         2        2.371165e-01
        27         2        9.057876e-01
        28         2        2.007380e+00
        29         2       -1.065287e+00
        30         2       -1.244548e+00
        31         2        7.678197e-02
        32         2        2.052754e+00
        33         2       -7.706567e-01
        34         2        5.190532e-01
        35         2        6.637909e-01
        36         2        5.029302e-01
        37         2       -2.880926e-01
        38         2       -1.529492e+00
        39         2       -1.072922e+00
        40         2       -3.361762e-01
        41         2       -7.887799e-01
        42         2       -1.380377e+00
        43         2        2.330538e-01
        44         2        3.503806e-01
        45         2        1.921579e+00
        46         2       -1.512073e+00
        47         2       -2.064673e+00
        48         2        2.102409e+00
        49         2        2.304985e+00
        50         2        1.019310e+00
        51         2        7.959909e-01
        52         2       -2.453134e+00
        53         2       -1.222254e+00
        54         2       -3.627044e-01
        55         2        1.445539e+00
        56         2       -2.577784e-01
        57         2       -4.232508e-01
        58         2       -8.766827e-02
        59         2       -7.929073e-02
        60         2        1.196300e-01
        61         2       -1.073283e+00
        62         2        4.333036e-01
        63         2        6.312096e-01
        64         2        1.009380e+00
        65         2       -2.158981e-01
        66         2        1.149240e+00
        67         2       -4.979103e-01
        68         2        9.519996e-01
        69         2       -7.061404e-01
        70         2        7.702117e-01
        71         2        1.855471e-01
        72         2        9.953682e-01
        73         2        4.864451e-01
        74         2       -3.920526e-01
        75         2       -4.949051e-01
        76         2        6.312015e-01
        77         2       -3.304998e-01
        78         2        1.208849e+00
        79         2       -7.064234e-01
        80         2        4.382349e-01
        81         2       -2.259802e+00
        82         2        7.864508e-01
        83         2       -2.969604e-01
        84         2        4.429095e-01
        85         2       -1.287454e+00
        86         2        2.432877e+00
        87         2       -9.485286e-01
        88         2       -1.807511e+00
        89         2        7.703021e-02
        90         2       -5.049591e-01
        91         2        4.193764e-01
        92         2        5.243984e-01
        93         2        8.545696e-01
        94         2        1.158576e+00
        95         2       -4.031964e-01
        96         2        7.969162e-01
        97         2       -2.121961e-01
        98         2        4.600512e-01
        99         2       -1.478689e-01
       100         2       -2.154040e-01
         1         3       -1.495274e+00
         2         3        1.710116e-01
         3         3        1.813480e+00
         4         3       -5.469528e-01
         5         3        8.657416e-01
         6         3       -1.104587e+00
         7         3        8.502753e-02
         8         3        1.590960e+00
         9         3        1.322078e+00
        10         3        8.096605e-01
        11         3       -2.025443e-01
        12         3        1.400964e+00
        13         3        8.132422e-01
        14         3       -1.559530e+00
        15         3        9.412372e-01
        16         3       -8.750273e-01
        17         3       -9.119700e-01
        18         3       -1.688609e+00
        19         3       -4.133953e-01
        20         3       -5.977384e-01
        21         3       -9.641849e-01
        22         3        3.567223e-01
        23         3       -4.158133e-01
        24         3       -5.940909e-01
        25         3       -8.153372e-01
        26         3        6.831604e-01
        27         3        5.416360e-01
        28         3       -2.208765e-01
        29         3        5.089159e-01
        30         3       -1.475371e+00
        31         3        9.855660e-01
        32         3        1.552366e+00
        33         3       -1.038539e+00
        34         3        2.066573e+00
        35         3        9.507640e-01
        36         3        4.008848e-01
        37         3       -2.541326e-01
        38         3       -3.318335e-01
        39         3       -5.768471e-01
        40         3       -6.786237e-01
        41         3       -4.685569e-01
        42         3       -3.827528e-01
        43         3        1.462427e+00
        44         3       -1.232828e+00
        45         3        1.714927e+00
        46         3       -9.408840e-01
        47         3        7.093165e-01
        48         3        2.644131e+00
        49         3        1.906641e-02
        50         3       -2.392570e+00
        51         3       -1.231227e+00
        52         3       -1.904116e-02
        53         3        7.318320e-01
        54         3       -2.132287e-02
        55         3       -2.602122e-01
        56         3       -5.542225e-01
        57         3       -5.162328e-01
        58         3        1.631291e-01
        59         3       -4.355287e-01
        60         3        7.866251e-01
        61         3       -1.586353e-01
        62         3       -1.440934e-01
        63         3        3.752272e-01
        64         3        3.530966e-01
        65         3        6.512277e-01
        66         3       -1.196507e+00
        67         3        4.187515e-01
        68         3        9.755900e-01
        69         3        1.202403e+00
        70         3        9.502853e-01
        71         3        2.613831e-01
        72         3       -1.134001e-01
        73         3        1.810186e+00
        74         3        4.096316e-01
        75         3       -2.007365e-01
        76         3       -7.473374e-01
        77         3       -2.118790e+00
        78         3        7.488892e-02
        79         3        5.266668e-01
        80         3       -9.483854e-01
        81         3       -5.826032e-01
        82         3        1.253910e+00
        83         3       -2.556826e-01
        84         3        7.007795e-01
        85         3        1.320129e+00
        86         3        2.045534e+00
        87         3       -2.588199e-01
        88         3       -1.160286e+00
        89         3       -1.355944e+00
        90         3       -1.058400e+00
        91         3       -1.016929e+00
        92         3       -2.252820e+00
        93         3        1.758847e+00
        94         3        1.913895e-01
        95         3        8.349416e-01
        96         3        9.505218e-01
        97         3       -2.033243e-01
        98         3        1.697122e+00
        99         3        5.411667e-01
       100         3       -1.038912e-01
         1         4        4.695968e-01
         2         4        4.585718e-01
         3         4        1.612924e+00
         4         4        5.191257e-03
         5         4       -1.156164e-01
         6         4       -1.070533e+00
         7         4        7.997255e-01
         8         4       -1.056569e-02
         9         4       -6.587900e-01
        10         4        1.839272e+00
        11         4       -1.154025e+00
        12         4       -7.145883e-01
        13         4       -8.649683e-01
        14         4        2.138366e-02
        15         4       -1.348182e+00
        16         4        4.090802e-01
        17         4       -3.700094e-02
        18         4       -8.028272e-02
        19         4       -2.620230e-01
        20         4        1.375645e+00
        21         4       -2.953239e-01
        22         4       -1.305656e+00
        23         4        8.848077e-01
        24         4       -8.410740e-01
        25         4        1.393636e+00
        26         4        1.275943e+00
        27         4        2.236315e-01
        28         4        9.504677e-01
        29         4        5.629419e-01
        30         4       -1.093563e+00
        31         4       -5.107601e-01
        32         4       -3.078372e-01
        33         4       -2.164396e-01
        34         4        1.454733e-01
        35         4        3.711536e-01
        36         4       -1.663773e+00
        37         4        5.212810e-01
        38         4        3.257965e-01
        39         4       -4.769974e-01
        40         4       -5.099572e-01
        41         4       -5.041752e-02
        42         4        6.573200e-02
        43         4        4.325351e-02
        44         4       -4.251828e-02
        45         4       -6.131041e-01
        46         4        4.814182e-01
        47         4        1.185197e+00
        48         4       -1.119854e-02
        49         4        4.292257e-01
        50         4       -8.125963e-02
        51         4       -4.186922e-01
        52         4        6.700518e-01
        53         4        1.296853e+00
        54         4       -4.890480e-01
        55         4        9.430053e-01
        56         4       -7.494565e-01
        57         4        1.089508e+00
        58         4       -6.033457e-01
        59         4        6.704768e-01
        60         4       -7.064018e-01
        61         4        1.163016e+00
        62         4        6.495720e-02
        63         4        1.121675e-02
        64         4       -9.754358e-02
        65         4        1.233393e+00
        66         4        8.904982e-01
        67         4       -8.630540e-01
        68         4       -1.351668e+00
        69         4       -8.615741e-01
        70         4       -7.958044e-01
        71         4        5.439173e-01
        72         4        8.436889e-02
        73         4       -6.513074e-01
        74         4       -5.977630e-01
        75         4        6.362582e-01
        76         4       -4.166473e-01
        77         4        7.839098e-03
        78         4        6.683097e-01
        79         4        7.538020e-01
        80         4       -3.998973e-01
        81         4        1.203847e+00
        82         4        1.606090e+00
        83         4        8.626194e-01
        84         4        2.258228e+00
        85         4        1.973974e-01
        86         4        9.867338e-01
        87         4       -1.213477e-01
        88         4        1.167106e+00
        89         4        2.634781e-01
        90         4        1.149514e-01
        91         4        4.353465e-02
        92         4        1.652048e+00
        93         4       -8.272909e-01
        94         4        5.866099e-01
        95         4        1.177133e+00
        96         4        1.694236e+00
        97         4       -4.377001e-01
        98         4        4.322633e-01
        99         4       -1.155279e-01
       100         4        1.633945e+00
         1         5        1.286656e+00
         2         5        1.386908e-01
         3         5       -9.020489e-01
         4         5       -1.189021e+00
         5         5        2.610912e+00
         6         5        8.254739e-01
         7         5       -9.865463e-01
         8         5       -1.386393e+00
         9         5       -1.667820e-01
        10         5       -1.429528e-01
        11         5       -7.861728e-01
        12         5       -1.157497e+00
        13         5        1.701622e-01
        14         5        6.496746e-01
        15         5       -3.489767e-02
        16         5        1.548079e+00
        17         5       -4.613127e-01
        18         5        1.931412e-01
        19         5        3.899810e-03
        20         5        1.399111e-01
        21         5        9.491637e-01
        22         5       -6.771331e-02
        23         5       -1.339583e+00
        24         5        3.519072e-01
        25         5       -6.632970e-01
        26         5        8.979072e-01
        27         5       -1.359669e+00
        28         5        7.509596e-01
        29         5        7.962211e-01
        30         5       -1.213086e+00
        31         5        3.747356e-01
        32         5        3.663112e-01
        33         5       -7.757200e-01
        34         5       -1.088988e-01
        35         5        1.587498e+00
        36         5       -3.889975e-01
        37         5        1.407296e+00
        38         5        5.005474e-01
        39         5       -2.349268e+00
        40         5        3.286222e-01
        41         5       -9.321078e-01
        42         5       -1.007186e-01
        43         5        5.237318e-01
        44         5        4.362087e-01
        45         5       -2.221949e+00
        46         5       -1.153029e+00
        47         5        3.289174e-01
        48         5        3.181915e-01
        49         5        3.037302e-01
        50         5        5.572601e-01
        51         5       -1.551300e+00
        52         5       -5.195684e-01
        53         5        1.236409e+00
        54         5       -1.766825e-02
        55         5        2.934635e-02
        56         5       -8.175131e-01
        57         5        1.964029e+00
        58         5       -1.549112e-01
        59         5       -2.516077e+00
        60         5       -1.087265e+00
        61         5        1.086166e+00
        62         5       -2.526683e-01
        63         5       -1.198879e+00
        64         5        1.856165e+00
        65         5       -8.694780e-01
        66         5       -8.941343e-01
        67         5       -6.391320e-01
        68         5       -1.173741e-01
        69         5       -8.432216e-01
        70         5        6.572023e-01
        71         5       -2.012541e+00
        72         5        1.420269e+00
        73         5        7.374240e-01
        74         5       -7.303274e-01
        75         5       -2.829043e-01
        76         5       -1.638055e-01
        77         5        5.943996e-01
        78         5       -1.659554e+00
        79         5       -7.027964e-01
        80         5       -1.961242e+00
        81         5       -9.615130e-01
        82         5       -1.343934e+00
        83         5        5.883591e-01
        84         5       -1.331958e+00
        85         5        1.655696e+00
        86         5        1.349383e+00
        87         5        3.453506e-02
        88         5       -5.419661e-01
        89         5       -5.371221e-02
        90         5        1.719847e+00
        91         5       -9.067143e-01
        92         5        8.935461e-01
        93         5        9.326813e-01
        94         5        2.680644e-01
        95         5       -5.360800e-01
        96         5       -5.808121e-01
        97         5        1.272723e+00
        98         5        1.094132e-01
        99         5        8.387798e-01
       100         5       -1.573896e-01
;

param theta:=
    1        5.388431e-01
    2        2.371919e-02
    3       -2.056586e+00
    4        1.054860e+00
    5        1.294900e+00
;
param X_true:=
    1        5.746604e+00
    2       -4.756494e-01
    3       -2.626851e+00
    4       -1.004330e+00
    5        5.648810e-01
    6        2.125375e+00
    7       -8.552293e-01
    8       -4.902278e+00
    9       -2.152990e+00
   10        3.902423e-01
   11       -1.100404e+00
   12       -6.521303e+00
   13       -2.554899e+00
   14        5.094807e+00
   15       -3.446635e+00
   16        4.658166e+00
   17        1.109936e+00
   18        3.744180e+00
   19        3.381162e-01
   20        2.802666e+00
   21        3.613331e+00
   22       -2.647559e+00
   23       -6.094023e-02
   24        7.805016e-01
   25        1.498001e+00
   26        1.081438e+00
   27       -3.061060e+00
   28        3.693682e+00
   29        5.156048e-01
   30       -7.166493e-02
   31       -1.776470e+00
   32       -2.728483e+00
   33        1.968184e+00
   34       -4.266709e+00
   35        1.078866e+00
   36       -3.001113e+00
   37        3.021177e+00
   38        1.697615e+00
   39       -2.181093e+00
   40        1.389911e+00
   41       -3.449256e-01
   42        1.178840e+00
   43       -2.551960e+00
   44        3.705249e+00
   45       -6.759703e+00
   46        1.468868e+00
   47        3.617873e-01
   48       -4.598236e+00
   49        1.224863e+00
   50        5.371374e+00
   51       -1.593839e-02
   52       -6.995059e-03
   53        9.959438e-01
   54       -2.660539e-01
   55        1.377557e+00
   56       -7.785317e-01
   57        5.094372e+00
   58       -1.354500e+00
   59       -1.106621e+00
   60       -3.422714e+00
   61        3.369090e+00
   62        3.705364e-01
   63       -2.369751e+00
   64        1.854377e+00
   65       -1.654824e+00
   66        2.037789e+00
   67       -2.621808e+00
   68       -3.558464e+00
   69       -4.724726e+00
   70       -2.287199e+00
   71       -1.909007e+00
   72        1.810264e+00
   73       -3.359996e+00
   74       -2.360081e+00
   75        8.493804e-01
   76        1.384781e+00
   77        4.221624e+00
   78       -2.213595e+00
   79       -1.543966e+00
   80       -2.518397e+00
   81        3.042915e-01
   82       -3.189696e+00
   83        2.838476e+00
   84       -9.978449e-01
   85       -2.618077e-01
   86       -1.559470e+00
   87        3.495335e-01
   88        3.165165e+00
   89        3.007656e+00
   90        3.522371e+00
   91        5.486664e-01
   92        8.178228e+00
   93       -3.232752e+00
   94        5.831182e-01
   95       -1.530912e+00
   96       -1.153024e+00
   97        1.875951e+00
   98       -2.448424e+00
   99       -1.190334e-01
  100       -3.203140e-01
;
param X:=
    1        1.500757e+00
    2        8.360627e-01
    3       -1.528431e+00
    4       -1.004330e+00
    5        4.453346e-02
    6       -7.454223e-02
    7       -5.792339e-01
    8       -4.902278e+00
    9       -1.660076e+00
   10        2.712710e+00
   11        3.760065e-02
   12       -4.619909e-01
   13       -3.689156e-02
   14        1.417311e+00
   15       -1.732095e+00
   16       -4.936478e-01
   17        7.367141e-01
   18        1.634534e+00
   19        1.981160e+00
   20        9.853254e-01
   21        1.339469e+00
   22       -4.712192e-01
   23       -1.470177e+00
   24        1.147079e+00
   25        5.916760e-01
   26        2.907124e-02
   27       -3.061060e+00
   28        1.909372e+00
   29        4.744141e-01
   30        4.688962e-01
   31       -9.074661e-01
   32       -1.945761e+00
   33        1.305385e-01
   34        1.739141e+00
   35        8.144330e-01
   36        6.663033e-01
   37        7.657963e-01
   38        6.412789e-01
   39       -3.109907e-01
   40        2.731342e-01
   41        2.175977e-01
   42        7.827841e-02
   43       -7.481037e-01
   44        1.282973e-01
   45       -2.864497e-02
   46       -1.574369e-02
   47       -1.502980e+00
   48       -1.018542e+00
   49       -9.880464e-01
   50        1.597822e+00
   51        9.792722e-02
   52        3.915246e-01
   53        9.959438e-01
   54        1.026314e+00
   55        7.692635e-02
   56       -1.259743e+00
   57        3.723081e-01
   58       -1.455853e+00
   59       -2.506850e-01
   60       -4.623112e-01
   61       -6.578285e-01
   62        3.705364e-01
   63       -5.547067e-02
   64       -3.210859e-01
   65        1.174497e-01
   66       -1.451811e+00
   67       -1.007002e+00
   68        1.258534e+00
   69       -9.170315e-01
   70       -9.989697e-01
   71       -2.416876e-01
   72       -5.571611e-01
   73        2.613518e+00
   74       -6.781360e-01
   75       -5.160845e-01
   76        1.812424e-02
   77        4.221624e+00
   78        7.158837e-01
   79        6.494787e-02
   80       -7.565650e-01
   81       -1.174721e+00
   82        4.544057e-01
   83       -1.187955e+00
   84       -3.806739e-01
   85        1.687222e-01
   86       -7.113128e-01
   87       -6.868130e-01
   88       -7.429654e-01
   89        3.550553e-01
   90        3.522371e+00
   91       -2.248539e-01
   92        8.178228e+00
   93        9.148640e-01
   94        5.831182e-01
   95       -3.895619e-02
   96       -1.892533e-01
   97        8.702581e-01
   98       -5.796867e-01
   99       -1.190334e-01
  100        1.009130e+00
;
param outliervec:=
    1    1
    2    1
    3    1
    4    0
    5    1
    6    1
    7    1
    8    0
    9    1
   10    1
   11    1
   12    1
   13    1
   14    1
   15    1
   16    1
   17    1
   18    1
   19    1
   20    1
   21    1
   22    1
   23    1
   24    1
   25    1
   26    1
   27    0
   28    1
   29    1
   30    1
   31    1
   32    1
   33    1
   34    1
   35    1
   36    1
   37    1
   38    1
   39    1
   40    1
   41    1
   42    1
   43    1
   44    1
   45    1
   46    1
   47    1
   48    1
   49    1
   50    1
   51    1
   52    1
   53    0
   54    1
   55    1
   56    1
   57    1
   58    1
   59    1
   60    1
   61    1
   62    0
   63    1
   64    1
   65    1
   66    1
   67    1
   68    1
   69    1
   70    1
   71    1
   72    1
   73    1
   74    1
   75    1
   76    1
   77    0
   78    1
   79    1
   80    1
   81    1
   82    1
   83    1
   84    1
   85    1
   86    1
   87    1
   88    1
   89    1
   90    0
   91    1
   92    0
   93    1
   94    0
   95    1
   96    1
   97    1
   98    1
   99    0
  100    1
;